%mem=8GB
%nprocshared=4
%chk=top.chk
# b3lyp/6-31g* empiricaldispersion=gd3bj 

Title Card Required

0 1
 Ni                -5.34084000    5.48824000    3.25430000
 C                 -2.35919000    4.79533000    3.28680000
 C                 -2.35919000    6.18114000    3.22180000
 C                  4.07296000    4.79218000    3.25946000
 C                  4.07296000    6.18429000    3.24914000
 C                  0.16362800    5.48824000    3.25430000
 C                  1.54769000    5.48824000    3.25430000
 S                 -0.79139100    4.03982000    3.37994000
 S                 -0.79139100    6.93665000    3.12866000
 S                  2.50799000    4.03580000    3.32825000
 S                  2.50799000    6.94067000    3.18035000
 S                  5.53619000    3.94166000    3.10942000
 S                  5.53619000    7.03481000    3.39918000
 S                 -3.82091000    3.92436000    3.34956000
 S                 -3.82091000    7.05211000    3.15904000
 Ni                 7.05251000    5.48824000    3.25430000
 S                 -6.85716000    3.94166000    3.10942000
 S                 -6.85716000    7.03481000    3.39918000
 C                 -8.32246000    4.79218000    3.25946000
 C                 -8.32246000    6.18429000    3.24914000
 C                -10.84770000    5.48824000    3.25430000
 S                 -9.88743000    4.03580000    3.32825000
 S                 -9.88743000    6.94067000    3.18035000
 C                 10.03450000    4.79533000    3.28680000
 C                 10.03450000    6.18114000    3.22180000
 C                 12.55740000    5.48824000    3.25430000
 S                 11.60230000    4.03982000    3.37994000
 S                 11.60230000    6.93665000    3.12866000
 S                  8.57282000    3.92436000    3.34956000
 S                  8.57282000    7.05211000    3.15904000
 H                 13.62740000    5.48824172    3.25430034
 H                -11.91770000    5.48824170    3.25430020
Ni -5.3408400000 6.7382400000 6.8043000000
C -2.3591900000 6.0453300000 6.8368000000
C -2.3591900000 7.4311400000 6.7718000000
C 4.0729600000 6.0421800000 6.8094600000
C 4.0729600000 7.4342900000 6.7991400000
C 0.1636280000 6.7382400000 6.8043000000
C 1.5476900000 6.7382400000 6.8043000000
S -0.7913910000 5.2898200000 6.9299400000
S -0.7913910000 8.1866500000 6.6786600000
S 2.5079900000 5.2858000000 6.8782500000
S 2.5079900000 8.1906700000 6.7303500000
S 5.5361900000 5.1916600000 6.6594200000
S 5.5361900000 8.2848100000 6.9491800000
S -3.8209100000 5.1743600000 6.8995600000
S -3.8209100000 8.3021100000 6.7090400000
Ni 7.0525100000 6.7382400000 6.8043000000
S -6.8571600000 5.1916600000 6.6594200000
S -6.8571600000 8.2848100000 6.9491800000
C -8.3224600000 6.0421800000 6.8094600000
C -8.3224600000 7.4342900000 6.7991400000
C -10.8477000000 6.7382400000 6.8043000000
S -9.8874300000 5.2858000000 6.8782500000
S -9.8874300000 8.1906700000 6.7303500000
C 10.0345000000 6.0453300000 6.8368000000
C 10.0345000000 7.4311400000 6.7718000000
C 12.5574000000 6.7382400000 6.8043000000
S 11.6023000000 5.2898200000 6.9299400000
S 11.6023000000 8.1866500000 6.6786600000
S 8.5728200000 5.1743600000 6.8995600000
S 8.5728200000 8.3021100000 6.7090400000
H -11.9177000000 6.7382417000 6.8043002000
H 13.6274000000 6.7382417200 6.8043003400

