 &control
    calculation = 'bands'
    title = 'NiTTFtt 3D metal monomer'
    restart_mode='from_scratch',
    prefix='NiTTFtt',
    pseudo_dir = "/home/ewing/.local/pslibrary.1.0.0/pbe/PSEUDOPOTENTIALS/"
 /
 &system
    ibrav=  0,
    nat= 15,
    ntyp= 3,
    nbnd = 50
    nqx1=1, nqx2=1, nqx3=1
    occupations = 'smearing'
    smearing = 'cold'
    degauss =   0.0001
 /
 &electrons
    conv_thr =  1.0d-9
 /
ATOMIC_SPECIES
 C   12.0107 C.pbe-n-kjpaw_psl.1.0.0.UPF
 S   32.065  S.pbe-n-kjpaw_psl.1.0.0.UPF
 Ni  58.6934 Ni.pbe-n-kjpaw_psl.1.0.0.UPF
ATOMIC_POSITIONS crystal
 S   0.45994   0.96841   0.20725
 S   0.43814   0.92188   0.68467
 S   0.45514   0.68047   0.66230
 S   0.44254   0.72488   0.22244
 C   0.44857   0.62870   0.44132
 C   0.44701   0.81766   0.54732
 C   0.44630   0.83868   0.33768
 S   0.43852   0.17481   0.67739
 S   0.46033   0.22137   0.19997
 S   0.44334   0.46278   0.22235
 S   0.45596   0.41836   0.66221
 C   0.44992   0.51455   0.44332
 C   0.45148   0.32556   0.33732
 C   0.45217   0.30455   0.54696
Ni   0.45122   0.07918   0.43913
K_POINTS crystal
199
        0.0000000000    0.0000000000    0.0000000000    1.0
        0.0192307692    0.0384615385    0.0000000000    1.0
        0.0384615385    0.0769230769    0.0000000000    1.0
        0.0576923077    0.1153846154    0.0000000000    1.0
        0.0769230769    0.1538461538    0.0000000000    1.0
        0.0961538462    0.1923076923    0.0000000000    1.0
        0.1153846154    0.2307692308    0.0000000000    1.0
        0.1346153846    0.2692307692    0.0000000000    1.0
        0.1538461538    0.3076923077    0.0000000000    1.0
        0.1730769231    0.3461538462    0.0000000000    1.0
        0.1923076923    0.3846153846    0.0000000000    1.0
        0.2115384615    0.4230769231    0.0000000000    1.0
        0.2307692308    0.4615384615    0.0000000000    1.0
        0.2500000000    0.5000000000    0.0000000000    1.0
        0.2692307692    0.5384615385    0.0000000000    1.0
        0.2884615385    0.5769230769    0.0000000000    1.0
        0.3076923077    0.6153846154    0.0000000000    1.0
        0.3269230769    0.6538461538    0.0000000000    1.0
        0.3461538462    0.6923076923    0.0000000000    1.0
        0.3653846154    0.7307692308    0.0000000000    1.0
        0.3846153846    0.7692307692    0.0000000000    1.0
        0.4038461538    0.8076923077    0.0000000000    1.0
        0.4230769231    0.8461538462    0.0000000000    1.0
        0.4423076923    0.8846153846    0.0000000000    1.0
        0.4615384615    0.9230769231    0.0000000000    1.0
        0.4807692308    0.9615384615    0.0000000000    1.0
        0.5000000000    1.0000000000   -0.0000000000    1.0
        0.4995300000    1.0604200000   -0.0039566667    1.0
        0.4990600000    1.1208400000   -0.0079133333    1.0
        0.4985900000    1.1812600000   -0.0118700000    1.0
        0.4981200000    1.2416800000   -0.0158266667    1.0
        0.4976500000    1.3021000000   -0.0197833333    1.0
        0.4971800000    1.3625200000   -0.0237400000    1.0
        0.4772928000    1.3280192000   -0.0227904000    1.0
        0.4574056000    1.2935184000   -0.0218408000    1.0
        0.4375184000    1.2590176000   -0.0208912000    1.0
        0.4176312000    1.2245168000   -0.0199416000    1.0
        0.3977440000    1.1900160000   -0.0189920000    1.0
        0.3778568000    1.1555152000   -0.0180424000    1.0
        0.3579696000    1.1210144000   -0.0170928000    1.0
        0.3380824000    1.0865136000   -0.0161432000    1.0
        0.3181952000    1.0520128000   -0.0151936000    1.0
        0.2983080000    1.0175120000   -0.0142440000    1.0
        0.2784208000    0.9830112000   -0.0132944000    1.0
        0.2585336000    0.9485104000   -0.0123448000    1.0
        0.2386464000    0.9140096000   -0.0113952000    1.0
        0.2187592000    0.8795088000   -0.0104456000    1.0
        0.1988720000    0.8450080000   -0.0094960000    1.0
        0.1789848000    0.8105072000   -0.0085464000    1.0
        0.1590976000    0.7760064000   -0.0075968000    1.0
        0.1392104000    0.7415056000   -0.0066472000    1.0
        0.1193232000    0.7070048000   -0.0056976000    1.0
        0.0994360000    0.6725040000   -0.0047480000    1.0
        0.0795488000    0.6380032000   -0.0037984000    1.0
        0.0596616000    0.6035024000   -0.0028488000    1.0
        0.0397744000    0.5690016000   -0.0018992000    1.0
        0.0198872000    0.5345008000   -0.0009496000    1.0
        0.0000000000    0.5000000000    0.0000000000    1.0
        0.0000000000    0.4375000000    0.0000000000    1.0
        0.0000000000    0.3750000000    0.0000000000    1.0
        0.0000000000    0.3125000000    0.0000000000    1.0
        0.0000000000    0.2500000000    0.0000000000    1.0
        0.0000000000    0.1875000000    0.0000000000    1.0
        0.0000000000    0.1250000000    0.0000000000    1.0
        0.0000000000    0.0625000000    0.0000000000    1.0
        0.0000000000    0.0000000000    0.0000000000    1.0
        0.0000000000    0.0000000000    0.0357142857    1.0
        0.0000000000    0.0000000000    0.0714285714    1.0
        0.0000000000    0.0000000000    0.1071428571    1.0
        0.0000000000    0.0000000000    0.1428571429    1.0
        0.0000000000    0.0000000000    0.1785714286    1.0
        0.0000000000    0.0000000000    0.2142857143    1.0
        0.0000000000    0.0000000000    0.2500000000    1.0
        0.0000000000    0.0000000000    0.2857142857    1.0
        0.0000000000    0.0000000000    0.3214285714    1.0
        0.0000000000    0.0000000000    0.3571428571    1.0
        0.0000000000    0.0000000000    0.3928571429    1.0
        0.0000000000    0.0000000000    0.4285714286    1.0
        0.0000000000    0.0000000000    0.4642857143    1.0
        0.0000000000    0.0000000000    0.5000000000    1.0
       -0.0215263636   -0.0246731818    0.5168540909    1.0
       -0.0430527273   -0.0493463636    0.5337081818    1.0
       -0.0645790909   -0.0740195455    0.5505622727    1.0
       -0.0861054545   -0.0986927273    0.5674163636    1.0
       -0.1076318182   -0.1233659091    0.5842704545    1.0
       -0.1291581818   -0.1480390909    0.6011245455    1.0
       -0.1506845455   -0.1727122727    0.6179786364    1.0
       -0.1722109091   -0.1973854545    0.6348327273    1.0
       -0.1937372727   -0.2220586364    0.6516868182    1.0
       -0.2152636364   -0.2467318182    0.6685409091    1.0
       -0.2367900000   -0.2714050000    0.6853950000    1.0
       -0.2583163636   -0.2960781818    0.7022490909    1.0
       -0.2798427273   -0.3207513636    0.7191031818    1.0
       -0.3013690909   -0.3454245455    0.7359572727    1.0
       -0.3228954545   -0.3700977273    0.7528113636    1.0
       -0.3444218182   -0.3947709091    0.7696654545    1.0
       -0.3659481818   -0.4194440909    0.7865195455    1.0
       -0.3874745455   -0.4441172727    0.8033736364    1.0
       -0.4090009091   -0.4687904545    0.8202277273    1.0
       -0.4305272727   -0.4934636364    0.8370818182    1.0
       -0.4520536364   -0.5181368182    0.8539359091    1.0
       -0.4735800000   -0.5428100000    0.8707900000    1.0
       -0.4757816667   -0.5392425000    0.8398908333    1.0
       -0.4779833333   -0.5356750000    0.8089916667    1.0
       -0.4801850000   -0.5321075000    0.7780925000    1.0
       -0.4823866667   -0.5285400000    0.7471933333    1.0
       -0.4845883333   -0.5249725000    0.7162941667    1.0
       -0.4867900000   -0.5214050000    0.6853950000    1.0
       -0.4889916667   -0.5178375000    0.6544958333    1.0
       -0.4911933333   -0.5142700000    0.6235966667    1.0
       -0.4933950000   -0.5107025000    0.5926975000    1.0
       -0.4955966667   -0.5071350000    0.5617983333    1.0
       -0.4977983333   -0.5035675000    0.5308991667    1.0
       -0.5000000000   -0.5000000000    0.5000000000    1.0
       -0.5029340000   -0.5417430000    0.4639830000    1.0
       -0.5058680000   -0.5834860000    0.4279660000    1.0
       -0.5088020000   -0.6252290000    0.3919490000    1.0
       -0.5117360000   -0.6669720000    0.3559320000    1.0
       -0.5146700000   -0.7087150000    0.3199150000    1.0
       -0.5176040000   -0.7504580000    0.2838980000    1.0
       -0.5205380000   -0.7922010000    0.2478810000    1.0
       -0.5234720000   -0.8339440000    0.2118640000    1.0
       -0.5264060000   -0.8756870000    0.1758470000    1.0
       -0.5293400000   -0.9174300000    0.1398300000    1.0
       -0.5195600000   -0.9449533333    0.0932200000    1.0
       -0.5097800000   -0.9724766667    0.0466100000    1.0
       -0.5000000000   -1.0000000000    0.0000000000    1.0
       -0.4807692308   -0.9615384615    0.0000000000    1.0
       -0.4615384615   -0.9230769231    0.0000000000    1.0
       -0.4423076923   -0.8846153846    0.0000000000    1.0
       -0.4230769231   -0.8461538462    0.0000000000    1.0
       -0.4038461538   -0.8076923077    0.0000000000    1.0
       -0.3846153846   -0.7692307692    0.0000000000    1.0
       -0.3653846154   -0.7307692308    0.0000000000    1.0
       -0.3461538462   -0.6923076923    0.0000000000    1.0
       -0.3269230769   -0.6538461538    0.0000000000    1.0
       -0.3076923077   -0.6153846154    0.0000000000    1.0
       -0.2884615385   -0.5769230769    0.0000000000    1.0
       -0.2692307692   -0.5384615385    0.0000000000    1.0
       -0.2500000000   -0.5000000000    0.0000000000    1.0
       -0.2307692308   -0.4615384615    0.0000000000    1.0
       -0.2115384615   -0.4230769231    0.0000000000    1.0
       -0.1923076923   -0.3846153846    0.0000000000    1.0
       -0.1730769231   -0.3461538462    0.0000000000    1.0
       -0.1538461538   -0.3076923077    0.0000000000    1.0
       -0.1346153846   -0.2692307692    0.0000000000    1.0
       -0.1153846154   -0.2307692308    0.0000000000    1.0
       -0.0961538462   -0.1923076923    0.0000000000    1.0
       -0.0769230769   -0.1538461538    0.0000000000    1.0
       -0.0576923077   -0.1153846154    0.0000000000    1.0
       -0.0384615385   -0.0769230769    0.0000000000    1.0
       -0.0192307692   -0.0384615385    0.0000000000    1.0
        0.0000000000    0.0000000000    0.0000000000    1.0
        0.0000000000   -0.0625000000    0.0000000000    1.0
        0.0000000000   -0.1250000000    0.0000000000    1.0
        0.0000000000   -0.1875000000    0.0000000000    1.0
        0.0000000000   -0.2500000000    0.0000000000    1.0
        0.0000000000   -0.3125000000    0.0000000000    1.0
        0.0000000000   -0.3750000000    0.0000000000    1.0
        0.0000000000   -0.4375000000    0.0000000000    1.0
        0.0000000000   -0.5000000000   -0.0000000000    1.0
       -0.0000091667   -0.5268966667   -0.0388033333    1.0
       -0.0000183333   -0.5537933333   -0.0776066667    1.0
       -0.0000275000   -0.5806900000   -0.1164100000    1.0
       -0.0000366667   -0.6075866667   -0.1552133333    1.0
       -0.0000458333   -0.6344833333   -0.1940166667    1.0
       -0.0000550000   -0.6613800000   -0.2328200000    1.0
       -0.0000641667   -0.6882766667   -0.2716233333    1.0
       -0.0000733333   -0.7151733333   -0.3104266667    1.0
       -0.0000825000   -0.7420700000   -0.3492300000    1.0
       -0.0000916667   -0.7689666667   -0.3880333333    1.0
       -0.0001008333   -0.7958633333   -0.4268366667    1.0
       -0.0001100000   -0.8227600000   -0.4656400000    1.0
       -0.0000880000   -0.7582080000   -0.4725120000    1.0
       -0.0000660000   -0.6936560000   -0.4793840000    1.0
       -0.0000440000   -0.6291040000   -0.4862560000    1.0
       -0.0000220000   -0.5645520000   -0.4931280000    1.0
        0.0000000000   -0.5000000000   -0.5000000000    1.0
        0.0000220000   -0.4354480000   -0.5068720000    1.0
        0.0000440000   -0.3708960000   -0.5137440000    1.0
        0.0000660000   -0.3063440000   -0.5206160000    1.0
        0.0000880000   -0.2417920000   -0.5274880000    1.0
        0.0001100000   -0.1772400000   -0.5343600000    1.0
        0.0000550000   -0.0886200000   -0.5171800000    1.0
        0.0000000000    0.0000000000   -0.5000000000    1.0
        0.0000000000    0.0000000000   -0.4642857143    1.0
        0.0000000000    0.0000000000   -0.4285714286    1.0
        0.0000000000    0.0000000000   -0.3928571429    1.0
        0.0000000000    0.0000000000   -0.3571428571    1.0
        0.0000000000    0.0000000000   -0.3214285714    1.0
        0.0000000000    0.0000000000   -0.2857142857    1.0
        0.0000000000    0.0000000000   -0.2500000000    1.0
        0.0000000000    0.0000000000   -0.2142857143    1.0
        0.0000000000    0.0000000000   -0.1785714286    1.0
        0.0000000000    0.0000000000   -0.1428571429    1.0
        0.0000000000    0.0000000000   -0.1071428571    1.0
        0.0000000000    0.0000000000   -0.0714285714    1.0
        0.0000000000    0.0000000000   -0.0357142857    1.0
        0.0000000000    0.0000000000    0.0000000000    1.0
CELL_PARAMETERS angstrom
  3.45900   0.00000   0.00000
  4.28146  11.63666   0.00000
 -2.64699   2.24887   5.72004
