 &control
    calculation = 'scf'
    title = 'NiTTFtt 3D perpX monomer'
    restart_mode='from_scratch',
    prefix='NiTTFtt',
    pseudo_dir = "~/.local/pslibrary.1.0.0/pbe/PSEUDOPOTENTIALS/"
 /
 &system
    ibrav = 0
    nat = 15
    ntyp = 3
    ecutwfc = 100,
    nbnd=90
    occupations = 'smearing'
    smearing = 'cold'
    degauss =   0.001
 /
 &electrons
    conv_thr =  1.0d-8
 /
ATOMIC_SPECIES
 C   12.0107 C.pbe-n-kjpaw_psl.1.0.0.UPF
 S   32.065  S.pbe-n-kjpaw_psl.1.0.0.UPF
 Ni  58.6934 Ni.pbe-n-kjpaw_psl.1.0.0.UPF
ATOMIC_POSITIONS angstrom
S        1.7467604100     4.8795387200    11.6533581120
S        1.6458959700     1.7019763600    11.6322793020
S        1.6863662700     1.8661980400     8.6317726950
S        1.6864008600     4.7422858000     8.6317726950
C        1.6827343200     3.3077217600     7.7129845650
C        1.6776150000     2.6154343600    10.1831731110
C        1.6926962400     3.9945886400    10.1876368590
S        1.6177397100     1.7202455200     2.3608267200
S        1.7186387400     4.8978078800     2.3822775090
S        1.6782376200     4.7335192800     5.3827841160
S        1.6782376200     1.8574984400     5.3827841160
C        1.6818695700     3.2920624800     6.3015722460
C        1.6869888900     3.9843498800     3.8310117210
C        1.6718730600     2.6051956000     3.8266719660
Ni       1.6685178300     3.3040411600     0.8998172010
K_POINTS automatic
 3 3 9 0 0 0
CELL_PARAMETERS angstrom
   -0.0000000000    -0.0000000000   -12.3993000000
   -0.0000000000    -6.6920000000     0.0000000000
   -3.4590000000     0.0000000000     0.0000000000
