 &control
    calculation = 'bands'
    title = 'NiTTFtt 3D metal monomer'
    restart_mode='from_scratch',
    prefix='NiTTFtt',
    tstress = .true.
    tprnfor = .true.
    pseudo_dir = "~/.local/pslibrary.1.0.0/pbe/PSEUDOPOTENTIALS/"
 /
 &system
    ibrav = 0
    nat = 15
    ntyp = 3
    ecutwfc = 150,
    nbnd=90
    occupations = 'smearing'
    smearing = 'cold'
    degauss =   0.0001
 /
 &electrons
    conv_thr =  1.0d-9
 /
ATOMIC_SPECIES
 C   12.0107 C.pbe-n-kjpaw_psl.1.0.0.UPF
 S   32.065  S.pbe-n-kjpaw_psl.1.0.0.UPF
 Ni  58.6934 Ni.pbe-n-kjpaw_psl.1.0.0.UPF
ATOMIC_POSITIONS crystal
 S   0.45994   0.96841   0.20725
 S   0.43814   0.92188   0.68467
 S   0.45514   0.68047   0.66230
 S   0.44254   0.72488   0.22244
 C   0.44857   0.62870   0.44132
 C   0.44701   0.81766   0.54732
 C   0.44630   0.83868   0.33768
 S   0.43852   0.17481   0.67739
 S   0.46033   0.22137   0.19997
 S   0.44334   0.46278   0.22235
 S   0.45596   0.41836   0.66221
 C   0.44992   0.51455   0.44332
 C   0.45148   0.32556   0.33732
 C   0.45217   0.30455   0.54696
Ni   0.45122   0.07918   0.43913
K_POINTS crystal
153
    0.00 0 0 1
    0.01 0 0 1
    0.02 0 0 1
    0.03 0 0 1
    0.04 0 0 1
    0.05 0 0 1
    0.06 0 0 1
    0.07 0 0 1
    0.08 0 0 1
    0.09 0 0 1
    0.10 0 0 1
    0.11 0 0 1
    0.12 0 0 1
    0.13 0 0 1
    0.14 0 0 1
    0.15 0 0 1
    0.16 0 0 1
    0.17 0 0 1
    0.18 0 0 1
    0.19 0 0 1
    0.20 0 0 1
    0.21 0 0 1
    0.22 0 0 1
    0.23 0 0 1
    0.24 0 0 1
    0.25 0 0 1
    0.26 0 0 1
    0.27 0 0 1
    0.28 0 0 1
    0.29 0 0 1
    0.30 0 0 1
    0.31 0 0 1
    0.32 0 0 1
    0.33 0 0 1
    0.34 0 0 1
    0.35 0 0 1
    0.36 0 0 1
    0.37 0 0 1
    0.38 0 0 1
    0.39 0 0 1
    0.40 0 0 1
    0.41 0 0 1
    0.42 0 0 1
    0.43 0 0 1
    0.44 0 0 1
    0.45 0 0 1
    0.46 0 0 1
    0.47 0 0 1
    0.48 0 0 1
    0.49 0 0 1
    0.50 0 0 1
    0 0.00 0 1
    0 0.01 0 1
    0 0.02 0 1
    0 0.03 0 1
    0 0.04 0 1
    0 0.05 0 1
    0 0.06 0 1
    0 0.07 0 1
    0 0.08 0 1
    0 0.09 0 1
    0 0.10 0 1
    0 0.11 0 1
    0 0.12 0 1
    0 0.13 0 1
    0 0.14 0 1
    0 0.15 0 1
    0 0.16 0 1
    0 0.17 0 1
    0 0.18 0 1
    0 0.19 0 1
    0 0.20 0 1
    0 0.21 0 1
    0 0.22 0 1
    0 0.23 0 1
    0 0.24 0 1
    0 0.25 0 1
    0 0.26 0 1
    0 0.27 0 1
    0 0.28 0 1
    0 0.29 0 1
    0 0.30 0 1
    0 0.31 0 1
    0 0.32 0 1
    0 0.33 0 1
    0 0.34 0 1
    0 0.35 0 1
    0 0.36 0 1
    0 0.37 0 1
    0 0.38 0 1
    0 0.39 0 1
    0 0.40 0 1
    0 0.41 0 1
    0 0.42 0 1
    0 0.43 0 1
    0 0.44 0 1
    0 0.45 0 1
    0 0.46 0 1
    0 0.47 0 1
    0 0.48 0 1
    0 0.49 0 1
    0 0.50 0 1
    0 0 0.00 1
    0 0 0.01 1
    0 0 0.02 1
    0 0 0.03 1
    0 0 0.04 1
    0 0 0.05 1
    0 0 0.06 1
    0 0 0.07 1
    0 0 0.08 1
    0 0 0.09 1
    0 0 0.10 1
    0 0 0.11 1
    0 0 0.12 1
    0 0 0.13 1
    0 0 0.14 1
    0 0 0.15 1
    0 0 0.16 1
    0 0 0.17 1
    0 0 0.18 1
    0 0 0.19 1
    0 0 0.20 1
    0 0 0.21 1
    0 0 0.22 1
    0 0 0.23 1
    0 0 0.24 1
    0 0 0.25 1
    0 0 0.26 1
    0 0 0.27 1
    0 0 0.28 1
    0 0 0.29 1
    0 0 0.30 1
    0 0 0.31 1
    0 0 0.32 1
    0 0 0.33 1
    0 0 0.34 1
    0 0 0.35 1
    0 0 0.36 1
    0 0 0.37 1
    0 0 0.38 1
    0 0 0.39 1
    0 0 0.40 1
    0 0 0.41 1
    0 0 0.42 1
    0 0 0.43 1
    0 0 0.44 1
    0 0 0.45 1
    0 0 0.46 1
    0 0 0.47 1
    0 0 0.48 1
    0 0 0.49 1
    0 0 0.50 1
CELL_PARAMETERS angstrom
  3.45900   0.00000   0.00000
  4.28146  11.63666   0.00000
 -2.64699   2.24887   5.72004
