 &control
    calculation = 'scf'
    title = 'NiTTFtt 3D metal monomer'
    restart_mode='from_scratch',
    prefix='NiTTFtt',
    tstress = .true.
    tprnfor = .true.
    pseudo_dir = "~/.local/pslibrary.1.0.0/pbe/PSEUDOPOTENTIALS/"
 /
 &system
    ibrav = 0
    nat = 15
    ntyp = 3
    ecutwfc = 150,
    nbnd=90
    occupations = 'smearing'
    smearing = 'cold'
    degauss =   0.0001
 /
 &electrons
    conv_thr =  1.0d-9
 /
ATOMIC_SPECIES
 C   12.0107 C.pbe-n-kjpaw_psl.1.0.0.UPF
 S   32.065  S.pbe-n-kjpaw_psl.1.0.0.UPF
 Ni  58.6934 Ni.pbe-n-kjpaw_psl.1.0.0.UPF
ATOMIC_POSITIONS crystal
 S   0.45994   0.96841   0.20725
 S   0.43814   0.92188   0.68467
 S   0.45514   0.68047   0.66230
 S   0.44254   0.72488   0.22244
 C   0.44857   0.62870   0.44132
 C   0.44701   0.81766   0.54732
 C   0.44630   0.83868   0.33768
 S   0.43852   0.17481   0.67739
 S   0.46033   0.22137   0.19997
 S   0.44334   0.46278   0.22235
 S   0.45596   0.41836   0.66221
 C   0.44992   0.51455   0.44332
 C   0.45148   0.32556   0.33732
 C   0.45217   0.30455   0.54696
Ni   0.45122   0.07918   0.43913
K_POINTS automatic
 33 11 23 0 0 0
CELL_PARAMETERS angstrom
  3.45900   0.00000   0.00000
  4.28146  11.63666   0.00000
 -2.64699   2.24887   5.72004
