 &control
    calculation = 'bands'
    title = 'NiTTFtt 2D dimer'
    restart_mode='from_scratch',
    prefix='NiTTFtt',
    pseudo_dir = "~/.local/pslibrary.1.0.0/pbe/PSEUDOPOTENTIALS/"
 /
 &system
    ibrav = 0
    nat = 30
    ntyp = 3
    ecutwfc = 100,
    nbnd=180
    occupations = 'smearing'
    smearing = 'cold'
    degauss =   0.001
 /
 &electrons
    conv_thr =  1.0d-8
 /
ATOMIC_SPECIES
 C   12.0107 C.pbe-n-kjpaw_psl.1.0.0.UPF
 S   32.065  S.pbe-n-kjpaw_psl.1.0.0.UPF
 Ni  58.6934 Ni.pbe-n-kjpaw_psl.1.0.0.UPF
ATOMIC_POSITIONS angstrom
Ni       0.0000000000     0.1473941115     3.2543000000
Ni       0.0000000000    11.2720988388     0.0000000000
C        0.6349878432     1.8684214460     6.2222541430
C        5.0818121568     1.8684214460     0.2863458570
C        0.6416593488     3.1290482213     2.9907732946
C        5.0751406512     3.1290482213     3.5178267054
C        0.6329526624     9.5611968713     2.9646673000
C        5.0838473376     9.5611968713     3.5439327000
C        0.6413849424     8.2991696475     6.2441230390
C        5.0754150576     8.2991696475     0.2644769610
C        0.0000000000     4.3964417657     0.0000000000
C        0.0000000000     5.6518633340     3.2543000000
C        0.0000000000     5.7794528722     0.0000000000
C        0.0000000000     7.0359278753     3.2543000000
S        1.3520689344     3.4370353621     5.9694601190
S        4.3647310656     3.4370353621     0.5391398810
S        1.3656920688     4.6968441763     2.7557347314
S        4.3511079312     4.6968441763     3.7528652686
S        1.3474783440     7.9962266000     2.7071870840
S        4.3693216560     7.9962266000     3.8014129160
S        1.3613816016     6.7355378580     5.9997706692
S        4.3554183984     6.7355378580     0.5088293308
S        1.4525416944     9.7621054681     5.9386614238
S        4.2642583056     9.7621054681     0.5699385762
S        1.3402637424    11.0244301324     2.4690764616
S        4.3765362576    11.0244301324     4.0395235384
S        1.4574810096     1.6673269489     2.6793758362
S        4.2593189904     1.6673269489     3.8292241638
S        1.3464721872     0.4062292263     5.7224196974
S        4.3703278128     0.4062292263     0.7861803026
K_POINTS crystal
201
        0.0000000000    0.0000000000    0.0000000000    1.0
        0.0238095238    0.0000000000    0.0000000000    1.0
        0.0476190476    0.0000000000    0.0000000000    1.0
        0.0714285714    0.0000000000    0.0000000000    1.0
        0.0952380952    0.0000000000    0.0000000000    1.0
        0.1190476190    0.0000000000    0.0000000000    1.0
        0.1428571429    0.0000000000    0.0000000000    1.0
        0.1666666667    0.0000000000    0.0000000000    1.0
        0.1904761905    0.0000000000    0.0000000000    1.0
        0.2142857143    0.0000000000    0.0000000000    1.0
        0.2380952381    0.0000000000    0.0000000000    1.0
        0.2619047619    0.0000000000    0.0000000000    1.0
        0.2857142857    0.0000000000    0.0000000000    1.0
        0.3095238095    0.0000000000    0.0000000000    1.0
        0.3333333333    0.0000000000    0.0000000000    1.0
        0.3571428571    0.0000000000    0.0000000000    1.0
        0.3809523810    0.0000000000    0.0000000000    1.0
        0.4047619048    0.0000000000    0.0000000000    1.0
        0.4285714286    0.0000000000    0.0000000000    1.0
        0.4523809524    0.0000000000    0.0000000000    1.0
        0.4761904762    0.0000000000    0.0000000000    1.0
        0.5000000000    0.0000000000    0.0000000000    1.0
        0.5000000000    0.0500000000    0.0000000000    1.0
        0.5000000000    0.1000000000    0.0000000000    1.0
        0.5000000000    0.1500000000    0.0000000000    1.0
        0.5000000000    0.2000000000    0.0000000000    1.0
        0.5000000000    0.2500000000    0.0000000000    1.0
        0.5000000000    0.3000000000    0.0000000000    1.0
        0.5000000000    0.3500000000    0.0000000000    1.0
        0.5000000000    0.4000000000    0.0000000000    1.0
        0.5000000000    0.4500000000    0.0000000000    1.0
        0.5000000000    0.5000000000    0.0000000000    1.0
        0.4761904762    0.5000000000    0.0000000000    1.0
        0.4523809524    0.5000000000    0.0000000000    1.0
        0.4285714286    0.5000000000    0.0000000000    1.0
        0.4047619048    0.5000000000    0.0000000000    1.0
        0.3809523810    0.5000000000    0.0000000000    1.0
        0.3571428571    0.5000000000    0.0000000000    1.0
        0.3333333333    0.5000000000    0.0000000000    1.0
        0.3095238095    0.5000000000    0.0000000000    1.0
        0.2857142857    0.5000000000    0.0000000000    1.0
        0.2619047619    0.5000000000    0.0000000000    1.0
        0.2380952381    0.5000000000    0.0000000000    1.0
        0.2142857143    0.5000000000    0.0000000000    1.0
        0.1904761905    0.5000000000    0.0000000000    1.0
        0.1666666667    0.5000000000    0.0000000000    1.0
        0.1428571429    0.5000000000    0.0000000000    1.0
        0.1190476190    0.5000000000    0.0000000000    1.0
        0.0952380952    0.5000000000    0.0000000000    1.0
        0.0714285714    0.5000000000    0.0000000000    1.0
        0.0476190476    0.5000000000    0.0000000000    1.0
        0.0238095238    0.5000000000    0.0000000000    1.0
        0.0000000000    0.5000000000    0.0000000000    1.0
        0.0000000000    0.4500000000    0.0000000000    1.0
        0.0000000000    0.4000000000    0.0000000000    1.0
        0.0000000000    0.3500000000    0.0000000000    1.0
        0.0000000000    0.3000000000    0.0000000000    1.0
        0.0000000000    0.2500000000    0.0000000000    1.0
        0.0000000000    0.2000000000    0.0000000000    1.0
        0.0000000000    0.1500000000    0.0000000000    1.0
        0.0000000000    0.1000000000    0.0000000000    1.0
        0.0000000000    0.0500000000    0.0000000000    1.0
        0.0000000000    0.0000000000    0.0000000000    1.0
        0.0000000000    0.0000000000    0.0263157895    1.0
        0.0000000000    0.0000000000    0.0526315789    1.0
        0.0000000000    0.0000000000    0.0789473684    1.0
        0.0000000000    0.0000000000    0.1052631579    1.0
        0.0000000000    0.0000000000    0.1315789474    1.0
        0.0000000000    0.0000000000    0.1578947368    1.0
        0.0000000000    0.0000000000    0.1842105263    1.0
        0.0000000000    0.0000000000    0.2105263158    1.0
        0.0000000000    0.0000000000    0.2368421053    1.0
        0.0000000000    0.0000000000    0.2631578947    1.0
        0.0000000000    0.0000000000    0.2894736842    1.0
        0.0000000000    0.0000000000    0.3157894737    1.0
        0.0000000000    0.0000000000    0.3421052632    1.0
        0.0000000000    0.0000000000    0.3684210526    1.0
        0.0000000000    0.0000000000    0.3947368421    1.0
        0.0000000000    0.0000000000    0.4210526316    1.0
        0.0000000000    0.0000000000    0.4473684211    1.0
        0.0000000000    0.0000000000    0.4736842105    1.0
        0.0000000000    0.0000000000    0.5000000000    1.0
       -0.0238095238    0.0000000000    0.5000000000    1.0
       -0.0476190476    0.0000000000    0.5000000000    1.0
       -0.0714285714    0.0000000000    0.5000000000    1.0
       -0.0952380952    0.0000000000    0.5000000000    1.0
       -0.1190476190    0.0000000000    0.5000000000    1.0
       -0.1428571429    0.0000000000    0.5000000000    1.0
       -0.1666666667    0.0000000000    0.5000000000    1.0
       -0.1904761905    0.0000000000    0.5000000000    1.0
       -0.2142857143    0.0000000000    0.5000000000    1.0
       -0.2380952381    0.0000000000    0.5000000000    1.0
       -0.2619047619    0.0000000000    0.5000000000    1.0
       -0.2857142857    0.0000000000    0.5000000000    1.0
       -0.3095238095    0.0000000000    0.5000000000    1.0
       -0.3333333333    0.0000000000    0.5000000000    1.0
       -0.3571428571    0.0000000000    0.5000000000    1.0
       -0.3809523810    0.0000000000    0.5000000000    1.0
       -0.4047619048    0.0000000000    0.5000000000    1.0
       -0.4285714286    0.0000000000    0.5000000000    1.0
       -0.4523809524    0.0000000000    0.5000000000    1.0
       -0.4761904762    0.0000000000    0.5000000000    1.0
       -0.5000000000    0.0000000000    0.5000000000    1.0
       -0.5000000000    0.0000000000    0.4736842105    1.0
       -0.5000000000    0.0000000000    0.4473684211    1.0
       -0.5000000000    0.0000000000    0.4210526316    1.0
       -0.5000000000    0.0000000000    0.3947368421    1.0
       -0.5000000000    0.0000000000    0.3684210526    1.0
       -0.5000000000    0.0000000000    0.3421052632    1.0
       -0.5000000000    0.0000000000    0.3157894737    1.0
       -0.5000000000    0.0000000000    0.2894736842    1.0
       -0.5000000000    0.0000000000    0.2631578947    1.0
       -0.5000000000    0.0000000000    0.2368421053    1.0
       -0.5000000000    0.0000000000    0.2105263158    1.0
       -0.5000000000    0.0000000000    0.1842105263    1.0
       -0.5000000000    0.0000000000    0.1578947368    1.0
       -0.5000000000    0.0000000000    0.1315789474    1.0
       -0.5000000000    0.0000000000    0.1052631579    1.0
       -0.5000000000    0.0000000000    0.0789473684    1.0
       -0.5000000000    0.0000000000    0.0526315789    1.0
       -0.5000000000    0.0000000000    0.0263157895    1.0
       -0.5000000000    0.0000000000    0.0000000000    1.0
       -0.4761904762    0.0000000000    0.0000000000    1.0
       -0.4523809524    0.0000000000    0.0000000000    1.0
       -0.4285714286    0.0000000000    0.0000000000    1.0
       -0.4047619048    0.0000000000    0.0000000000    1.0
       -0.3809523810    0.0000000000    0.0000000000    1.0
       -0.3571428571    0.0000000000    0.0000000000    1.0
       -0.3333333333    0.0000000000    0.0000000000    1.0
       -0.3095238095    0.0000000000    0.0000000000    1.0
       -0.2857142857    0.0000000000    0.0000000000    1.0
       -0.2619047619    0.0000000000    0.0000000000    1.0
       -0.2380952381    0.0000000000    0.0000000000    1.0
       -0.2142857143    0.0000000000    0.0000000000    1.0
       -0.1904761905    0.0000000000    0.0000000000    1.0
       -0.1666666667    0.0000000000    0.0000000000    1.0
       -0.1428571429    0.0000000000    0.0000000000    1.0
       -0.1190476190    0.0000000000    0.0000000000    1.0
       -0.0952380952    0.0000000000    0.0000000000    1.0
       -0.0714285714    0.0000000000    0.0000000000    1.0
       -0.0476190476    0.0000000000    0.0000000000    1.0
       -0.0238095238    0.0000000000    0.0000000000    1.0
        0.0000000000    0.0000000000    0.0000000000    1.0
        0.0000000000   -0.0500000000    0.0000000000    1.0
        0.0000000000   -0.1000000000    0.0000000000    1.0
        0.0000000000   -0.1500000000    0.0000000000    1.0
        0.0000000000   -0.2000000000    0.0000000000    1.0
        0.0000000000   -0.2500000000    0.0000000000    1.0
        0.0000000000   -0.3000000000    0.0000000000    1.0
        0.0000000000   -0.3500000000    0.0000000000    1.0
        0.0000000000   -0.4000000000    0.0000000000    1.0
        0.0000000000   -0.4500000000    0.0000000000    1.0
        0.0000000000   -0.5000000000    0.0000000000    1.0
        0.0000000000   -0.5000000000   -0.0263157895    1.0
        0.0000000000   -0.5000000000   -0.0526315789    1.0
        0.0000000000   -0.5000000000   -0.0789473684    1.0
        0.0000000000   -0.5000000000   -0.1052631579    1.0
        0.0000000000   -0.5000000000   -0.1315789474    1.0
        0.0000000000   -0.5000000000   -0.1578947368    1.0
        0.0000000000   -0.5000000000   -0.1842105263    1.0
        0.0000000000   -0.5000000000   -0.2105263158    1.0
        0.0000000000   -0.5000000000   -0.2368421053    1.0
        0.0000000000   -0.5000000000   -0.2631578947    1.0
        0.0000000000   -0.5000000000   -0.2894736842    1.0
        0.0000000000   -0.5000000000   -0.3157894737    1.0
        0.0000000000   -0.5000000000   -0.3421052632    1.0
        0.0000000000   -0.5000000000   -0.3684210526    1.0
        0.0000000000   -0.5000000000   -0.3947368421    1.0
        0.0000000000   -0.5000000000   -0.4210526316    1.0
        0.0000000000   -0.5000000000   -0.4473684211    1.0
        0.0000000000   -0.5000000000   -0.4736842105    1.0
        0.0000000000   -0.5000000000   -0.5000000000    1.0
        0.0000000000   -0.4500000000   -0.5000000000    1.0
        0.0000000000   -0.4000000000   -0.5000000000    1.0
        0.0000000000   -0.3500000000   -0.5000000000    1.0
        0.0000000000   -0.3000000000   -0.5000000000    1.0
        0.0000000000   -0.2500000000   -0.5000000000    1.0
        0.0000000000   -0.2000000000   -0.5000000000    1.0
        0.0000000000   -0.1500000000   -0.5000000000    1.0
        0.0000000000   -0.1000000000   -0.5000000000    1.0
        0.0000000000   -0.0500000000   -0.5000000000    1.0
        0.0000000000    0.0000000000   -0.5000000000    1.0
        0.0000000000    0.0000000000   -0.4736842105    1.0
        0.0000000000    0.0000000000   -0.4473684211    1.0
        0.0000000000    0.0000000000   -0.4210526316    1.0
        0.0000000000    0.0000000000   -0.3947368421    1.0
        0.0000000000    0.0000000000   -0.3684210526    1.0
        0.0000000000    0.0000000000   -0.3421052632    1.0
        0.0000000000    0.0000000000   -0.3157894737    1.0
        0.0000000000    0.0000000000   -0.2894736842    1.0
        0.0000000000    0.0000000000   -0.2631578947    1.0
        0.0000000000    0.0000000000   -0.2368421053    1.0
        0.0000000000    0.0000000000   -0.2105263158    1.0
        0.0000000000    0.0000000000   -0.1842105263    1.0
        0.0000000000    0.0000000000   -0.1578947368    1.0
        0.0000000000    0.0000000000   -0.1315789474    1.0
        0.0000000000    0.0000000000   -0.1052631579    1.0
        0.0000000000    0.0000000000   -0.0789473684    1.0
        0.0000000000    0.0000000000   -0.0526315789    1.0
        0.0000000000    0.0000000000   -0.0263157895    1.0
        0.0000000000    0.0000000000    0.0000000000    1.0
CELL_PARAMETERS angstrom
    5.7168000000     0.0000000000     0.0000000000
    0.0000000000    12.3933500000     0.0000000000
    0.0000000000     0.0000000000     6.5086000000
