 &control
    calculation = 'bands'
    title = 'NiTTFtt 3D perpX monomer'
    restart_mode='from_scratch',
    prefix='NiTTFtt',
    pseudo_dir = "~/.local/pslibrary.1.0.0/pbe/PSEUDOPOTENTIALS/"
 /
 &system
    ibrav = 0
    nat = 15
    ntyp = 3
    ecutwfc = 100,
    nbnd=90
    occupations = 'smearing'
    smearing = 'cold'
    degauss =   0.001
 /
 &electrons
    conv_thr =  1.0d-8
 /
ATOMIC_SPECIES
 C   12.0107 C.pbe-n-kjpaw_psl.1.0.0.UPF
 S   32.065  S.pbe-n-kjpaw_psl.1.0.0.UPF
 Ni  58.6934 Ni.pbe-n-kjpaw_psl.1.0.0.UPF
ATOMIC_POSITIONS angstrom
S        2.1301104752     4.8795387200     1.2017499739
S        2.2328427897     1.7019763600     1.1938883921
S        3.0273608593     1.8661980400     4.0876651654
S        3.0272888393     4.7422858000     4.0876651654
C        3.2860089638     3.3077217600     4.9693534702
C        2.6048357972     2.6155012800     2.5947984370
C        2.5891354372     3.9945886400     2.5947984370
S        1.2339127038     1.7202455200    10.0928415887
S        1.1310410681     4.8978078800    10.1003458258
S        0.3365229986     4.7335192800     7.2065690525
S        0.3365229986     1.8574984400     7.2065690525
C        0.0778028741     3.2920624800     6.3248807477
C        0.7590449148     3.9843498800     8.6996740106
C        0.7748172948     2.6051956000     8.6996740106
Ni       1.5908853886     3.3040411600    11.5104277161
K_POINTS crystal
29
 0.5000000000  0.0000000000  0.0000000000 1
 0.4444444444  0.0000000000  0.0000000000 1
 0.3888888889  0.0000000000  0.0000000000 1
 0.3333333333  0.0000000000  0.0000000000 1
 0.2777777778  0.0000000000  0.0000000000 1
 0.2222222222  0.0000000000  0.0000000000 1
 0.1666666667  0.0000000000  0.0000000000 1
 0.1111111111  0.0000000000  0.0000000000 1
 0.0555555556  0.0000000000  0.0000000000 1
 0.0000000000  0.0000000000  0.0000000000 1
 0.0000000000  0.0555555556  0.0000000000 1
 0.0000000000  0.1111111111  0.0000000000 1
 0.0000000000  0.1666666667  0.0000000000 1
 0.0000000000  0.2222222222  0.0000000000 1
 0.0000000000  0.2777777778  0.0000000000 1
 0.0000000000  0.3333333333  0.0000000000 1
 0.0000000000  0.3888888889  0.0000000000 1
 0.0000000000  0.4444444444  0.0000000000 1
 0.0000000000  0.5000000000  0.0000000000 1
 0.0000000000  0.0000000000  0.0000000000 1
 0.0000000000  0.0000000000  0.0555555556 1
 0.0000000000  0.0000000000  0.1111111111 1
 0.0000000000  0.0000000000  0.1666666667 1
 0.0000000000  0.0000000000  0.2222222222 1
 0.0000000000  0.0000000000  0.2777777778 1
 0.0000000000  0.0000000000  0.3333333333 1
 0.0000000000  0.0000000000  0.3888888889 1
 0.0000000000  0.0000000000  0.4444444444 1
 0.0000000000  0.0000000000  0.5000000000 1
CELL_PARAMETERS angstrom
   -0.1572947248     0.0000000000    11.9114875002
   -0.0000000000    -6.6920000000     0.0000000000
    3.6010000000     0.0000000000     0.0000000000
