 &control
    calculation = 'scf'
    title = 'NiTTFtt 1D chain'
    restart_mode='from_scratch',
    prefix='NiTTFtt',
    pseudo_dir = "~/.local/pslibrary.1.0.0/pbe/PSEUDOPOTENTIALS/"
    verbosity = 'high'
 /
 &system
    ibrav = 0
    nat = 15
    ntyp = 3
    ecutwfc = 75,
    nbnd=90
    occupations = 'smearing'
    smearing = 'cold'
    degauss =   0.0001
 /
 &electrons
    conv_thr =  1.0d-9
 /
ATOMIC_SPECIES
 C   12.0107 C.pbe-n-kjpaw_psl.1.0.0.UPF
 S   32.065  S.pbe-n-kjpaw_psl.1.0.0.UPF
 Ni  58.6934 Ni.pbe-n-kjpaw_psl.1.0.0.UPF
ATOMIC_POSITIONS angstrom
S       20.0536428264    63.7967695445    50.0997912537
S       15.2198765235    18.4994625723    47.3693505789
S        5.8202319937    18.3712955602    47.4970515046
S       10.6767043518    63.9029560475    50.0131187379
C        6.7345340895    17.6722304906    48.7612393827
C        4.2666549706    18.0229535749    48.1550446273
C        4.2577086775    17.3417782429    49.3540999049
S       12.0917694219    18.4743742310    47.4108918439
S       16.9255676692    63.7718580967    50.1418453738
S       13.9256322686    63.8998482153    50.0136315930
S        9.0694565526    18.3686569746    47.4975643597
C        8.1458275042    17.6739697938    48.7499565700
C       10.6142512512    17.3237159561    49.3561513254
C       10.6230735513    18.0048912881    48.1570960478
Ni      13.5474918445    17.6562983323    48.7735479057
K_POINTS automatic
 51 1 1 0 0 0
CELL_PARAMETERS angstrom
  -12.3993000000     0.0000000000     0.0000000000
   -3.1944428569   -17.6893404220   -51.2855122980
   -4.8656099499   -46.9246511380     0.0000000000
