 &control
    calculation = 'scf'
    title = 'NiTTFtt 3D perpX monomer'
    restart_mode='from_scratch',
    prefix='NiTTFtt',
    pseudo_dir = "~/.local/pslibrary.1.0.0/pbe/PSEUDOPOTENTIALS/"
 /
 &system
    ibrav = 0
    nat = 15
    ntyp = 3
    ecutwfc = 100,
    nbnd=90
    occupations = 'smearing'
    smearing = 'cold'
    degauss =   0.001
 /
 &electrons
    conv_thr =  1.0d-8
 /
ATOMIC_SPECIES
 C   12.0107 C.pbe-n-kjpaw_psl.1.0.0.UPF
 S   32.065  S.pbe-n-kjpaw_psl.1.0.0.UPF
 Ni  58.6934 Ni.pbe-n-kjpaw_psl.1.0.0.UPF
ATOMIC_POSITIONS angstrom
S        1.8729083862     4.8795387200     0.9882448005
S        1.9757799401     1.7019763600     0.9946261155
S        2.3649592628     1.8661980400     3.9699142301
S        2.3649420513     4.7422858000     3.9700369477
C        2.5000183542     3.3077217600     4.8788834635
C        2.1516973945     2.6154343600     2.4333672108
C        2.1361399009     3.9945886400     2.4311582940
S       -0.1650097372     1.7202455200    10.1666619569
S       -0.2679345067     4.8978078800    10.1599124891
S       -0.6571665179     4.7335192800     7.1845016569
S       -0.6571665179     1.8574984400     7.1845016569
C       -0.7922256094     3.2920624800     6.2755324234
C       -0.4438336956     3.9843498800     8.7215395466
C       -0.4282589904     2.6051956000     8.7236257457
Ni      -0.0062565854     3.3040411600    11.6198837286
K_POINTS automatic
 3 3 9 0 0 0
CELL_PARAMETERS angstrom
   -1.7211463284     0.0000000000    12.2717595984
   -0.0000000000    -6.6920000000     0.0000000000
    3.4950000000     0.0000000000     0.0000000000
