 &control
    calculation = 'bands'
    title = 'NiTTFtt 3D perpX monomer'
    restart_mode='from_scratch',
    prefix='NiTTFtt',
    pseudo_dir = "~/.local/pslibrary.1.0.0/pbe/PSEUDOPOTENTIALS/"
 /
 &system
    ibrav = 0
    nat = 15
    ntyp = 3
    ecutwfc = 100,
    nbnd=90
    occupations = 'smearing'
    smearing = 'cold'
    degauss =   0.001
 /
 &electrons
    conv_thr =  1.0d-8
 /
ATOMIC_SPECIES
 C   12.0107 C.pbe-n-kjpaw_psl.1.0.0.UPF
 S   32.065  S.pbe-n-kjpaw_psl.1.0.0.UPF
 Ni  58.6934 Ni.pbe-n-kjpaw_psl.1.0.0.UPF
ATOMIC_POSITIONS angstrom
S        1.3010812263     1.8124612800     9.9964226859
S        1.4020245657     4.9900236400    10.0172402717
S        2.5586304573     4.8258019600     7.2483876040
S        2.5586420882     1.9497142000     7.2482738467
C        2.9275391942     3.3842782400     6.4068111030
C        1.9494600047     4.0765656400     8.6751316533
C        1.9338614305     2.6974113600     8.6731977792
S        1.3465490643     4.9717544800     1.5223001807
S        1.2454200321     1.7941921200     1.5018238669
S        0.0887764405     1.9584807200     4.2706765346
S        0.0887764405     4.8345015600     4.2706765346
C       -0.2801322965     3.3999375200     5.1122530356
C        0.6980948859     2.7076501200     2.8435912134
C        0.7136818291     4.0868044000     2.8456388448
Ni       1.8812034143     3.3879588400     0.1617628798
K_POINTS crystal
29
 0.5000000000  0.0000000000  0.0000000000 1
 0.4444444444  0.0000000000  0.0000000000 1
 0.3888888889  0.0000000000  0.0000000000 1
 0.3333333333  0.0000000000  0.0000000000 1
 0.2777777778  0.0000000000  0.0000000000 1
 0.2222222222  0.0000000000  0.0000000000 1
 0.1666666667  0.0000000000  0.0000000000 1
 0.1111111111  0.0000000000  0.0000000000 1
 0.0555555556  0.0000000000  0.0000000000 1
 0.0000000000  0.0000000000  0.0000000000 1
 0.0000000000  0.0555555556  0.0000000000 1
 0.0000000000  0.1111111111  0.0000000000 1
 0.0000000000  0.1666666667  0.0000000000 1
 0.0000000000  0.2222222222  0.0000000000 1
 0.0000000000  0.2777777778  0.0000000000 1
 0.0000000000  0.3333333333  0.0000000000 1
 0.0000000000  0.3888888889  0.0000000000 1
 0.0000000000  0.4444444444  0.0000000000 1
 0.0000000000  0.5000000000  0.0000000000 1
 0.0000000000  0.0000000000  0.0000000000 1
 0.0000000000  0.0000000000  0.0555555556 1
 0.0000000000  0.0000000000  0.1111111111 1
 0.0000000000  0.0000000000  0.1666666667 1
 0.0000000000  0.0000000000  0.2222222222 1
 0.0000000000  0.0000000000  0.2777777778 1
 0.0000000000  0.0000000000  0.3333333333 1
 0.0000000000  0.0000000000  0.3888888889 1
 0.0000000000  0.0000000000  0.4444444444 1
 0.0000000000  0.0000000000  0.5000000000 1
CELL_PARAMETERS angstrom
   -1.1630932276     0.0000000000    11.3757299413
   -0.0000000000    -6.6920000000     0.0000000000
    3.7700000000     0.0000000000     0.0000000000
