%mem=8GB
%nprocshared=4
%chk=top.chk
# b3lyp/6-31g* empiricaldispersion=gd3bj 

Title Card Required

0 1
 Ni                -5.34084000    5.48824000    3.25430000
 C                 -2.35919000    4.79533000    3.28680000
 C                 -2.35919000    6.18114000    3.22180000
 C                  4.07296000    4.79218000    3.25946000
 C                  4.07296000    6.18429000    3.24914000
 C                  0.16362800    5.48824000    3.25430000
 C                  1.54769000    5.48824000    3.25430000
 S                 -0.79139100    4.03982000    3.37994000
 S                 -0.79139100    6.93665000    3.12866000
 S                  2.50799000    4.03580000    3.32825000
 S                  2.50799000    6.94067000    3.18035000
 S                  5.53619000    3.94166000    3.10942000
 S                  5.53619000    7.03481000    3.39918000
 S                 -3.82091000    3.92436000    3.34956000
 S                 -3.82091000    7.05211000    3.15904000
 Ni                 7.05251000    5.48824000    3.25430000
 S                 -6.85716000    3.94166000    3.10942000
 S                 -6.85716000    7.03481000    3.39918000
 C                 -8.32246000    4.79218000    3.25946000
 C                 -8.32246000    6.18429000    3.24914000
 C                -10.84770000    5.48824000    3.25430000
 S                 -9.88743000    4.03580000    3.32825000
 S                 -9.88743000    6.94067000    3.18035000
 C                 10.03450000    4.79533000    3.28680000
 C                 10.03450000    6.18114000    3.22180000
 C                 12.55740000    5.48824000    3.25430000
 S                 11.60230000    4.03982000    3.37994000
 S                 11.60230000    6.93665000    3.12866000
 S                  8.57282000    3.92436000    3.34956000
 S                  8.57282000    7.05211000    3.15904000
 H                 13.62740000    5.48824172    3.25430034
 H                -11.91770000    5.48824170    3.25430020
 Ni                -5.34084000    5.48824000    6.60430000
 C                 -2.35919000    4.79533000    6.63680000
 C                 -2.35919000    6.18114000    6.57180000
 C                  4.07296000    4.79218000    6.60946000
 C                  4.07296000    6.18429000    6.59914000
 C                  0.16362800    5.48824000    6.60430000
 C                  1.54769000    5.48824000    6.60430000
 S                 -0.79139100    4.03982000    6.72994000
 S                 -0.79139100    6.93665000    6.47866000
 S                  2.50799000    4.03580000    6.67825000
 S                  2.50799000    6.94067000    6.53035000
 S                  5.53619000    3.94166000    6.45942000
 S                  5.53619000    7.03481000    6.74918000
 S                 -3.82091000    3.92436000    6.69956000
 S                 -3.82091000    7.05211000    6.50904000
 Ni                 7.05251000    5.48824000    6.60430000
 S                 -6.85716000    3.94166000    6.45942000
 S                 -6.85716000    7.03481000    6.74918000
 C                 -8.32246000    4.79218000    6.60946000
 C                 -8.32246000    6.18429000    6.59914000
 C                -10.84770000    5.48824000    6.60430000
 S                 -9.88743000    4.03580000    6.67825000
 S                 -9.88743000    6.94067000    6.53035000
 C                 10.03450000    4.79533000    6.63680000
 C                 10.03450000    6.18114000    6.57180000
 C                 12.55740000    5.48824000    6.60430000
 S                 11.60230000    4.03982000    6.72994000
 S                 11.60230000    6.93665000    6.47866000
 S                  8.57282000    3.92436000    6.69956000
 S                  8.57282000    7.05211000    6.50904000
 H                -11.91770000    5.48824170    6.60430020
 H                 13.62740000    5.48824172    6.60430034



