%mem=16GB
%nprocshared=8
%chk=top.chk
# b3lyp/6-31g* empiricaldispersion=gd3bj

Title Card Required

0 1
 Ni                 0.05152100   -1.67500000   -0.00000400
 C                  3.03317200   -1.65085300    0.69324800
 C                  3.03317200   -1.69914700   -0.69324500
 C                  9.46532200   -1.67822900    0.69606700
 C                  9.46532200   -1.67177100   -0.69606600
 C                  5.55598900   -1.67500000   -0.00000400
 C                  6.94005100   -1.67500000   -0.00000400
 S                  4.60097100   -1.56682500    1.44982600
 S                  4.60097100   -1.78317600   -1.44982200
 S                  7.90035100   -1.61855900    1.45322200
 S                  7.90035100   -1.73144000   -1.45321900
 S                 10.92855200   -1.83850800    1.54471700
 S                 10.92855200   -1.51149200   -1.54471600
 S                  1.57145200   -1.59859300    1.56491100
 S                  1.57145100   -1.75140600   -1.56490800
 Ni                12.44487100   -1.67500000   -0.00000500
 S                 -1.46479900   -1.83850700    1.54471800
 S                 -1.46479800   -1.51149200   -1.54471500
 C                 -2.93009800   -1.67822900    0.69606800
 C                 -2.93009800   -1.67177100   -0.69606500
 C                 -5.45533800   -1.67500000   -0.00000200
 S                 -4.49506800   -1.61855900    1.45322300
 S                 -4.49506800   -1.73144000   -1.45321900
 C                 15.42686200   -1.65085300    0.69324700
 C                 15.42686100   -1.69914700   -0.69324600
 C                 17.94976100   -1.67500000   -0.00000500
 S                 16.99466200   -1.56682500    1.44982500
 S                 16.99466200   -1.78317600   -1.44982300
 S                 13.96518200   -1.59859400    1.56491000
 S                 13.96518200   -1.75140600   -1.56490800
 C                 -6.83939800   -1.67500000   -0.00000470
 S                 -7.79441600   -1.61857800    1.45275930
 S                 -7.79441700   -1.73142300   -1.45275770
 C                 -9.36221600   -1.67558200    0.69366730
 C                 -9.36221500   -1.67441800   -0.69366570
 S                -10.82393500   -1.65442900    1.56663930
 S                -10.82393600   -1.69557000   -1.56663770
 Ni               -12.34386600   -1.67500000   -0.00000470
 S                -13.86018600   -1.89347100    1.53790630
 S                -13.86018500   -1.45652900   -1.53790470
 C                -15.32548600   -1.70304100    0.69551030
 C                -15.32548600   -1.64695900   -0.69550770
 S                -16.89045500   -1.67040100    1.45431130
 S                -16.89045500   -1.67959900   -1.45430770
 C                -17.85072500   -1.67500000   -0.00000270
 H                -18.92072500   -1.67500000   -0.00000470
 H                 19.01976100   -1.67500000   -0.00000600
 Ni                 0.05152100    1.87500000   -0.00000400
 C                  3.03317200    1.89914700    0.69324800
 C                  3.03317200    1.85085300   -0.69324500
 C                  9.46532200    1.87177100    0.69606700
 C                  9.46532200    1.87822900   -0.69606600
 C                  5.55598900    1.87500000   -0.00000400
 C                  6.94005100    1.87500000   -0.00000400
 S                  4.60097100    1.98317500    1.44982600
 S                  4.60097100    1.76682400   -1.44982200
 S                  7.90035100    1.93144100    1.45322200
 S                  7.90035100    1.81856000   -1.45321900
 S                 10.92855200    1.71149200    1.54471700
 S                 10.92855200    2.03850800   -1.54471600
 S                  1.57145200    1.95140700    1.56491100
 S                  1.57145100    1.79859400   -1.56490800
 Ni                12.44487100    1.87500000   -0.00000500
 S                 -1.46479900    1.71149300    1.54471800
 S                 -1.46479800    2.03850800   -1.54471500
 C                 -2.93009800    1.87177100    0.69606800
 C                 -2.93009800    1.87822900   -0.69606500
 C                 -5.45533800    1.87500000   -0.00000200
 S                 -4.49506800    1.93144100    1.45322300
 S                 -4.49506800    1.81856000   -1.45321900
 C                 15.42686200    1.89914700    0.69324700
 C                 15.42686100    1.85085300   -0.69324600
 C                 17.94976100    1.87500000   -0.00000500
 S                 16.99466200    1.98317500    1.44982500
 S                 16.99466200    1.76682400   -1.44982300
 S                 13.96518200    1.95140600    1.56491000
 S                 13.96518200    1.79859400   -1.56490800
 C                 -6.83939800    1.87500000   -0.00000470
 S                 -7.79441600    1.93142200    1.45275930
 S                 -7.79441700    1.81857700   -1.45275770
 C                 -9.36221600    1.87441800    0.69366730
 C                 -9.36221500    1.87558200   -0.69366570
 S                -10.82393500    1.89557100    1.56663930
 S                -10.82393600    1.85443000   -1.56663770
 Ni               -12.34386600    1.87500000   -0.00000470
 S                -13.86018600    1.65652900    1.53790630
 S                -13.86018500    2.09347100   -1.53790470
 C                -15.32548600    1.84695900    0.69551030
 C                -15.32548600    1.90304100   -0.69550770
 S                -16.89045500    1.87959900    1.45431130
 S                -16.89045500    1.87040100   -1.45430770
 C                -17.85072500    1.87500000   -0.00000270
 H                -18.92072500    1.87500000   -0.00000470
 H                 19.01976100    1.87500000   -0.00000600
 

 