%mem=16GB
%nprocshared=8
%chk=top.chk
# b3lyp/6-31g* empiricaldispersion=gd3bj

Title Card Required

0 1
 Ni                 0.05152100   -1.67500000   -0.00000400
 C                  3.03317200   -1.65085300    0.69324800
 C                  3.03317200   -1.69914700   -0.69324500
 C                  9.46532200   -1.67822900    0.69606700
 C                  9.46532200   -1.67177100   -0.69606600
 C                  5.55598900   -1.67500000   -0.00000400
 C                  6.94005100   -1.67500000   -0.00000400
 S                  4.60097100   -1.56682500    1.44982600
 S                  4.60097100   -1.78317600   -1.44982200
 S                  7.90035100   -1.61855900    1.45322200
 S                  7.90035100   -1.73144000   -1.45321900
 S                 10.92855200   -1.83850800    1.54471700
 S                 10.92855200   -1.51149200   -1.54471600
 S                  1.57145200   -1.59859300    1.56491100
 S                  1.57145100   -1.75140600   -1.56490800
 Ni                12.44487100   -1.67500000   -0.00000500
 S                 -1.46479900   -1.83850700    1.54471800
 S                 -1.46479800   -1.51149200   -1.54471500
 C                 -2.93009800   -1.67822900    0.69606800
 C                 -2.93009800   -1.67177100   -0.69606500
 C                 -5.45533800   -1.67500000   -0.00000200
 S                 -4.49506800   -1.61855900    1.45322300
 S                 -4.49506800   -1.73144000   -1.45321900
 C                 15.42686200   -1.65085300    0.69324700
 C                 15.42686100   -1.69914700   -0.69324600
 C                 17.94976100   -1.67500000   -0.00000500
 S                 16.99466200   -1.56682500    1.44982500
 S                 16.99466200   -1.78317600   -1.44982300
 S                 13.96518200   -1.59859400    1.56491000
 S                 13.96518200   -1.75140600   -1.56490800
 C                 -6.83939800   -1.67500000   -0.00000470
 S                 -7.79441600   -1.61857800    1.45275930
 S                 -7.79441700   -1.73142300   -1.45275770
 C                 -9.36221600   -1.67558200    0.69366730
 C                 -9.36221500   -1.67441800   -0.69366570
 S                -10.82393500   -1.65442900    1.56663930
 S                -10.82393600   -1.69557000   -1.56663770
 Ni               -12.34386600   -1.67500000   -0.00000470
 S                -13.86018600   -1.89347100    1.53790630
 S                -13.86018500   -1.45652900   -1.53790470
 C                -15.32548600   -1.70304100    0.69551030
 C                -15.32548600   -1.64695900   -0.69550770
 S                -16.89045500   -1.67040100    1.45431130
 S                -16.89045500   -1.67959900   -1.45430770
 C                -17.85072500   -1.67500000   -0.00000270
 H                -18.92072500   -1.67500000   -0.00000470
 H                 19.01976100   -1.67500000   -0.00000600
Ni 0.0515210000 1.8750000000 0.4999960000
C 3.0331720000 1.8991470000 1.1932480000
C 3.0331720000 1.8508530000 -0.1932450000
C 9.4653220000 1.8717710000 1.1960670000
C 9.4653220000 1.8782290000 -0.1960660000
C 5.5559890000 1.8750000000 0.4999960000
C 6.9400510000 1.8750000000 0.4999960000
S 4.6009710000 1.9831750000 1.9498260000
S 4.6009710000 1.7668240000 -0.9498220000
S 7.9003510000 1.9314410000 1.9532220000
S 7.9003510000 1.8185600000 -0.9532190000
S 10.9285520000 1.7114920000 2.0447170000
S 10.9285520000 2.0385080000 -1.0447160000
S 1.5714520000 1.9514070000 2.0649110000
S 1.5714510000 1.7985940000 -1.0649080000
Ni 12.4448710000 1.8750000000 0.4999950000
S -1.4647990000 1.7114930000 2.0447180000
S -1.4647980000 2.0385080000 -1.0447150000
C -2.9300980000 1.8717710000 1.1960680000
C -2.9300980000 1.8782290000 -0.1960650000
C -5.4553380000 1.8750000000 0.4999980000
S -4.4950680000 1.9314410000 1.9532230000
S -4.4950680000 1.8185600000 -0.9532190000
C 15.4268620000 1.8991470000 1.1932470000
C 15.4268610000 1.8508530000 -0.1932460000
C 17.9497610000 1.8750000000 0.4999950000
S 16.9946620000 1.9831750000 1.9498250000
S 16.9946620000 1.7668240000 -0.9498230000
S 13.9651820000 1.9514060000 2.0649100000
S 13.9651820000 1.7985940000 -1.0649080000
C -6.8393980000 1.8750000000 0.4999953000
S -7.7944160000 1.9314220000 1.9527593000
S -7.7944170000 1.8185770000 -0.9527577000
C -9.3622160000 1.8744180000 1.1936673000
C -9.3622150000 1.8755820000 -0.1936657000
S -10.8239350000 1.8955710000 2.0666393000
S -10.8239360000 1.8544300000 -1.0666377000
Ni -12.3438660000 1.8750000000 0.4999953000
S -13.8601860000 1.6565290000 2.0379063000
S -13.8601850000 2.0934710000 -1.0379047000
C -15.3254860000 1.8469590000 1.1955103000
C -15.3254860000 1.9030410000 -0.1955077000
S -16.8904550000 1.8795990000 1.9543113000
S -16.8904550000 1.8704010000 -0.9543077000
C -17.8507250000 1.8750000000 0.4999973000
H -18.9207250000 1.8750000000 0.4999953000
H 19.0197610000 1.8750000000 0.4999940000


 