%mem=8GB
%nprocshared=4
%chk=para.chk
# B3LYP/6-31G* EmpiricalDispersion=GD3BJ 

Title Card Required

0 1
 Ni                -5.32609113    5.93877140    3.25430000
 C                 -2.39614355    5.05233574    3.28680000
 C                 -2.30550724    6.43517861    3.22180000
 C                  4.02202870    4.62850977    3.25946000
 C                  4.11307705    6.01763915    3.24914000
 C                  0.16659138    5.57876199    3.25430000
 C                  1.54769000    5.48824000    3.25430000
 S                 -0.88111404    4.19590438    3.37994000
 S                 -0.69165230    7.08653205    3.12866000
 S                  2.41093981    3.97610316    3.32825000
 S                  2.60092739    6.87475361    3.18035000
 S                  5.42649914    3.68411097    3.10942000
 S                  5.62880083    6.77063830    3.39918000
 S                 -3.91169805    4.27883162    3.34956000
 S                 -3.70713343    7.39988486    3.15904000
 Ni                 7.04072376    5.12820756    3.25430000
 S                 -6.94031574    4.49467481    3.10942000
 S                 -6.73801406    7.58120214    3.39918000
 C                 -8.34685176    5.43920899    3.25946000
 C                 -8.25580341    6.82833837    3.24914000
 C                -10.82116052    6.29893726    3.25430000
 S                 -9.95794064    4.78680239    3.32825000
 S                 -9.76795307    7.68545284    3.18035000
 C                  9.97101061    4.24174967    3.28680000
 C                 10.06164691    5.62459254    3.22180000
 C                 12.53382736    4.76817054    3.25430000
 S                 11.48604111    3.38531825    3.37994000
 S                 11.67550285    6.27594592    3.12866000
 S                  8.45549602    3.46824292    3.34956000
 S                  8.66006064    6.58929617    3.15904000
 H                 13.60153653    4.69819091    3.25430034
 H                -11.88886945    6.36892030    3.25430020
 Ni                -5.32609113    5.03770860    6.80430000
 C                 -2.30550659    4.54129141    6.83680000
 C                 -2.39614289    5.92413428    6.77180000
 C                  4.11307771    4.95883087    6.80946000
 C                  4.02202936    6.34796025    6.79914000
 C                  0.16659138    5.39771801    6.80430000
 C                  1.54769000    5.48824000    6.80430000
 S                 -0.69165166    3.88993797    6.92994000
 S                 -0.88111339    6.78056564    6.67866000
 S                  2.60092804    4.10171641    6.87825000
 S                  2.41094046    7.00036686    6.73035000
 S                  5.62880149    4.20583172    6.65942000
 S                  5.42649980    7.29235905    6.94918000
 S                 -3.70713278    3.57658516    6.89956000
 S                 -3.91169741    6.69763841    6.70904000
 Ni                 7.04072376    5.84827244    6.80430000
 S                 -6.73801340    3.39526788    6.65942000
 S                 -6.94031509    6.48179521    6.94918000
 C                 -8.25580275    4.14813165    6.80946000
 C                 -8.34685110    5.53726103    6.79914000
 C                -10.82116052    4.67754274    6.80430000
 S                 -9.76795242    3.29101718    6.87825000
 S                 -9.95794000    6.18966764    6.73035000
 C                 10.06164757    5.35187748    6.83680000
 C                  9.97101126    6.73472036    6.77180000
 C                 12.53382736    6.20830946    6.80430000
 S                 11.67550351    4.70052411    6.92994000
 S                 11.48604177    7.59115177    6.67866000
 S                  8.66006130    4.38717385    6.89956000
 S                  8.45549667    7.50822710    6.70904000
 H                -11.88886968    4.60756310    6.80430020
 H                 13.60153631    6.27829252    6.80430034




 