%mem=8GB
%nprocshared=4
%chk=para.chk
# B3LYP/6-31G* EmpiricalDispersion=GD3BJ 

Title Card Required

0 1
 Ni                 1.80758430    1.38308474   -6.01045435
 C                  1.74164982   -0.05678030   -3.30973990
 C                  1.83770025    1.27994018   -2.95106591
 C                  1.73027741   -1.72477125    2.90242461
 C                  1.77180381   -0.38069799    3.26272919
 C                  1.77452195   -0.04119272   -0.69354655
 C                  1.76620865   -0.39931785    0.64335468
 S                  1.62218051   -1.18985558   -1.99090268
 S                  1.93833574    1.60168155   -1.24114804
 S                  1.65394887   -2.04864990    1.19501416
 S                  1.86693219    0.75305056    1.94684976
 S                  1.85242068   -2.92818130    4.09566540
 S                  1.63208288    0.06549247    4.89623169
 S                  1.66816055   -0.51817039   -4.94707658
 S                  1.92874905    2.49776844   -4.13755542
 Ni                 1.73314418   -1.82368639    5.96060249
 S                  1.92686080    0.27858982   -7.87539144
 S                  1.70652300    3.27226359   -7.07482515
 C                  1.80472996    1.48253548   -9.07063169
 C                  1.84625636    2.82660874   -8.71032712
 C                  1.84066102    2.80798112  -11.32967265
 S                  1.72840143    1.15865684  -10.77804214
 S                  1.94138475    3.96035730  -10.02620655
 C                  1.66720766   -3.26363940    8.66164536
 C                  1.76325809   -1.92691892    9.02031934
 C                  1.70007930   -3.24807304   11.27791791
 S                  1.54773834   -4.39671494    9.98048354
 S                  1.86389357   -1.60517781   10.73023817
 S                  1.59371814   -3.72503984    7.02434731
 S                  1.85430664   -0.70910101    7.83386847
 H                  1.69365209   -3.52493316   12.31145899
 H                  1.84708777    3.08484456  -12.36321284
 Ni                -1.80758430   -1.38308474   -6.01045435
 C                 -1.83770025   -1.27994018   -2.95106591
 C                 -1.74164982    0.05678030   -3.30973990
 C                 -1.77180381    0.38069799    3.26272919
 C                 -1.73027741    1.72477125    2.90242461
 C                 -1.77452195    0.04119272   -0.69354655
 C                 -1.76620865    0.39931785    0.64335468
 S                 -1.93833574   -1.60168155   -1.24114804
 S                 -1.62218051    1.18985558   -1.99090268
 S                 -1.86693219   -0.75305056    1.94684976
 S                 -1.65394887    2.04864990    1.19501416
 S                 -1.63208288   -0.06549247    4.89623169
 S                 -1.85242068    2.92818130    4.09566540
 S                 -1.92874905   -2.49776844   -4.13755542
 S                 -1.66816055    0.51817039   -4.94707658
 Ni                -1.73314418    1.82368639    5.96060249
 S                 -1.70652300   -3.27226359   -7.07482515
 S                 -1.92686080   -0.27858982   -7.87539144
 C                 -1.84625636   -2.82660874   -8.71032712
 C                 -1.80472996   -1.48253548   -9.07063169
 C                 -1.84066102   -2.80798112  -11.32967265
 S                 -1.94138475   -3.96035730  -10.02620655
 S                 -1.72840143   -1.15865684  -10.77804214
 C                 -1.76325809    1.92691892    9.02031934
 C                 -1.66720766    3.26363940    8.66164536
 C                 -1.70007930    3.24807304   11.27791791
 S                 -1.86389357    1.60517781   10.73023817
 S                 -1.54773834    4.39671494    9.98048354
 S                 -1.85430664    0.70910101    7.83386847
 S                 -1.59371814    3.72503984    7.02434731
 H                 -1.84708777   -3.08484456  -12.36321284
 H                 -1.69365209    3.52493316   12.31145899

