%mem=8GB
%nprocshared=4
%chk=para.chk
# B3LYP/6-31G* EmpiricalDispersion=GD3BJ 

Title Card Required

0 1
 Ni                 1.82340712    2.06470867   -5.77901187
 C                  1.74957789    0.28474929   -3.28949161
 C                  1.84427609    1.56321730   -2.75916514
 C                  1.71971907   -2.17960899    2.65183465
 C                  1.75988708   -0.89405303    3.18457207
 C                  1.77452195   -0.04119272   -0.69354655
 C                  1.76223010   -0.57070767    0.58516000
 S                  1.62633908   -1.01071032   -2.13015529
 S                  1.93966766    1.65905868   -1.02158665
 S                  1.64862716   -2.27790139    0.91653686
 S                  1.85877598    0.40169296    2.02818235
 S                  1.83848615   -3.52846072    3.67820285
 S                  1.61513012   -0.66480744    4.86190036
 S                  1.68114026    0.04097668   -4.97325054
 S                  1.93867678    2.92544066   -3.77631260
 Ni                 1.71334180   -2.67674373    5.67095053
 S                  1.94855147    1.21299167   -7.77175955
 S                  1.72519544    4.07664495   -6.58806205
 C                  1.82980277    2.56263534   -8.80004019
 C                  1.86997079    3.84819130   -8.26730276
 C                  1.87231354    4.17152519  -10.86668711
 S                  1.75871086    2.46434294  -10.53533798
 S                  1.96885969    5.14393729   -9.42369248
 C                  1.63950955   -4.45683318    8.16078491
 C                  1.73420775   -3.17836517    8.69111138
 C                  1.66445289   -4.78280656   10.75680573
 S                  1.51627073   -5.75229317    9.32012216
 S                  1.82959931   -3.08252418   10.42869079
 S                  1.57107157   -4.70062109    6.47706294
 S                  1.82860809   -1.81615711    7.67400088
 H                  1.65494991   -5.19216596   11.74535749
 H                  1.88181604    4.58088775  -11.85523756
 Ni                -1.82340712   -2.06470867   -5.77901187
 C                 -1.84427609   -1.56321730   -2.75916514
 C                 -1.74957789   -0.28474929   -3.28949161
 C                 -1.75988708    0.89405303    3.18457207
 C                 -1.71971907    2.17960899    2.65183465
 C                 -1.77452195    0.04119272   -0.69354655
 C                 -1.76223010    0.57070767    0.58516000
 S                 -1.93966766   -1.65905868   -1.02158665
 S                 -1.62633908    1.01071032   -2.13015529
 S                 -1.85877598   -0.40169296    2.02818235
 S                 -1.64862716    2.27790139    0.91653686
 S                 -1.61513012    0.66480744    4.86190036
 S                 -1.83848615    3.52846072    3.67820285
 S                 -1.93867678   -2.92544066   -3.77631260
 S                 -1.68114026   -0.04097668   -4.97325054
 Ni                -1.71334180    2.67674373    5.67095053
 S                 -1.72519544   -4.07664495   -6.58806205
 S                 -1.94855147   -1.21299167   -7.77175955
 C                 -1.86997079   -3.84819130   -8.26730276
 C                 -1.82980277   -2.56263534   -8.80004019
 C                 -1.87231354   -4.17152519  -10.86668711
 S                 -1.96885969   -5.14393729   -9.42369248
 S                 -1.75871086   -2.46434294  -10.53533798
 C                 -1.73420775    3.17836517    8.69111138
 C                 -1.63950955    4.45683318    8.16078491
 C                 -1.66445289    4.78280656   10.75680573
 S                 -1.82959931    3.08252418   10.42869079
 S                 -1.51627073    5.75229317    9.32012216
 S                 -1.82860809    1.81615711    7.67400088
 S                 -1.57107157    4.70062109    6.47706294
 H                 -1.88181604   -4.58088775  -11.85523756
 H                 -1.65494991    5.19216596   11.74535749

